0 3516
1 626
2 475
3 475
4 471
5 467
6 467
7 462
8 458
9 453
10 453
11 453
12 450
13 450
14 450
15 450
16 450
17 450
18 450
19 450
20 450
21 450
22 450
23 450
24 450
25 450
26 450
27 450
28 450
29 450
30 450
31 450
32 450
33 450
34 450
35 450
36 450
37 450
38 449
39 449
40 449
41 449
42 449
43 449
44 449
45 449
46 449
47 449
48 449
49 449
50 449
51 449
52 449
53 449
54 449
55 448
56 448
57 448
58 448
59 448
60 448
61 448
62 448
63 448
64 448
65 448
66 448
67 448
68 448
69 448
70 448
71 448
72 448
73 448
74 448
75 448
76 448
77 448
78 448
79 448
80 448
81 448
82 448
83 448
84 448
85 448
86 448
87 448
88 448
89 448
90 448
91 448
92 448
93 448
94 448
95 448
96 448
97 448
98 448
99 448
100 448
101 448
102 448
103 448
104 448
105 448
106 448
107 448
108 448
109 448
110 448
111 448
112 448
113 448
114 448
115 448
116 448
117 448
118 448
119 448
120 448
121 448
122 448
123 448
124 448
125 448
126 448
127 448
128 448
129 448
130 448
131 448
132 448
133 448
134 448
135 448
136 448
137 448
138 448
139 448
140 448
141 448
142 448
143 448
144 448
145 448
146 448
147 448
148 448
149 448
150 448
151 448
152 448
153 448
154 448
155 448
156 448
157 448
158 448
159 448
160 448
161 448
162 448
163 448
164 448
165 448
166 448
167 448
168 448
169 448
170 448
171 448
172 448
173 448
174 448
175 448
176 448
177 448
178 448
179 448
180 448
181 448
182 448
183 448
184 448
185 448
186 448
187 448
188 448
189 448
190 448
191 448
192 448
193 448
194 448
195 448
196 448
197 448
198 448
199 448
200 448
201 448
202 448
203 448
204 448
205 448
206 448
207 448
208 448
209 448
210 448
211 448
212 448
213 448
214 448
215 448
216 448
217 448
218 448
219 448
220 448
221 448
222 448
223 448
224 448
225 448
226 448
227 448
228 448
229 448
230 448
231 448
232 448
233 448
234 448
235 448
236 448
237 448
238 448
239 448
240 448
241 448
242 448
243 448
244 448
245 448
246 448
247 448
248 448
249 448
250 448
251 448
252 448
253 448
254 448
255 448
256 448
257 448
258 448
259 448
260 448
261 448
262 448
263 448
264 448
265 448
266 448
267 448
268 448
269 448
270 448
271 448
272 448
273 448
274 448
275 448
276 448
277 448
278 448
279 448
280 448
281 448
282 448
283 448
284 448
285 448
286 448
287 448
288 448
289 448
290 448
291 448
292 448
293 448
294 448
295 448
296 448
297 448
298 448
299 448
300 448
301 448
302 448
303 448
304 448
305 448
306 448
307 448
308 448
309 448
310 448
311 448
312 448
313 448
314 448
315 448
316 448
317 448
318 448
319 448
320 448
321 448
322 448
323 448
324 448
325 448
326 448
327 448
328 448
329 448
330 448
331 448
332 448
333 448
334 448
335 448
336 448
337 448
338 448
339 448
340 448
341 448
342 448
343 448
344 448
345 448
346 448
347 448
348 448
349 448
350 448
351 448
352 448
353 448
354 448
355 448
356 448
357 448
358 448
359 448
360 448
361 448
362 448
363 448
364 448
365 448
366 448
367 448
368 448
369 448
370 448
371 448
372 448
373 448
374 448
375 448
376 448
377 448
378 448
379 448
380 447
381 447
382 447
383 447
384 447
385 447
386 447
387 447
388 447
389 447
390 447
391 447
392 447
393 447
394 447
395 447
396 447
397 447
398 447
399 447
400 447
401 447
402 447
403 447
404 447
405 447
406 447
407 447
408 447
409 447
410 447
411 447
412 447
413 447
414 447
415 447
416 447
417 447
418 447
419 447
420 447
421 447
422 447
423 447
424 447
425 447
426 447
427 447
428 447
429 447
430 447
431 447
432 447
433 447
434 447
435 447
436 447
437 447
438 447
439 447
440 447
441 447
442 444
443 444
444 444
445 444
446 444
447 444
448 444
449 444
450 444
451 444
452 444
453 444
454 444
455 444
456 444
457 444
458 444
459 444
460 444
461 444
462 444
463 444
464 444
465 444
466 444
467 444
468 444
469 444
470 444
471 444
472 444
473 444
474 444
475 444
476 444
477 444
478 444
479 444
480 444
481 444
482 444
483 444
484 444
485 444
486 444
487 444
488 444
489 444
490 444
491 444
492 444
493 444
494 444
495 444
496 444
497 444
498 444
499 444
500 444
501 444
502 444
503 444
504 444
505 444
506 444
507 444
508 444
509 444
510 444
511 444
512 444
513 444
514 444
515 444
516 444
517 444
518 444
519 444
520 444
521 444
522 444
523 444
524 444
525 444
526 444
527 444
528 444
529 444
530 444
531 444
532 444
533 444
534 444
535 444
536 444
537 444
538 444
539 444
540 444
541 444
542 444
543 444
544 444
545 444
546 444
547 444
548 444
549 444
550 444
551 444
552 444
553 444
554 444
555 444
556 444
557 444
558 444
559 444
560 444
561 444
562 444
563 444
564 444
565 444
566 444
567 444
568 444
569 444
570 444
571 444
572 444
573 444
574 444
575 444
576 444
577 444
578 444
579 444
580 444
581 444
582 444
583 444
584 444
585 444
586 444
587 444
588 444
589 444
590 444
591 444
592 444
593 444
594 444
595 444
596 444
597 444
598 444
599 444
600 444
601 444
602 444
603 444
604 444
605 444
606 444
607 444
608 444
609 444
610 444
611 444
612 444
613 444
614 444
615 444
616 444
617 444
618 444
619 444
620 444
621 444
622 444
623 444
624 444
625 444
626 444
627 444
628 444
629 444
630 444
631 444
632 444
633 444
634 444
635 444
636 444
637 444
638 444
639 444
640 444
641 444
642 444
643 444
644 444
645 444
646 444
647 444
648 444
649 444
650 444
651 444
652 444
653 444
654 444
655 444
656 444
657 444
658 444
659 444
660 444
661 444
662 444
663 444
664 444
665 444
666 444
667 444
668 444
669 444
670 444
671 444
672 444
673 444
674 444
675 444
676 444
677 444
678 444
679 444
680 444
681 444
682 444
683 444
684 444
685 444
686 444
687 444
688 444
689 444
690 444
691 444
692 444
693 444
694 444
695 444
696 444
697 444
698 444
699 444
700 444
701 444
702 444
703 444
704 444
705 444
706 444
707 444
708 444
709 444
710 444
711 444
712 444
713 444
714 444
715 444
716 444
717 444
718 444
719 444
720 444
721 443
722 443
723 443
724 443
725 443
726 443
727 443
728 443
729 443
730 443
731 443
732 443
733 443
734 443
735 443
736 443
737 443
738 443
739 443
740 443
741 443
742 443
743 443
744 443
745 443
746 443
747 443
748 443
749 443
750 443
751 443
752 443
753 443
754 443
755 443
756 443
757 443
758 443
759 443
760 443
761 443
762 443
763 443
764 443
765 443
766 443
767 443
768 443
769 443
770 443
771 443
772 443
773 443
774 443
775 443
776 443
777 443
778 443
779 443
780 443
781 443
782 443
783 443
784 443
785 443
786 443
787 443
788 443
789 443
790 443
791 443
792 443
793 443
794 443
795 443
796 443
797 443
798 443
799 443
800 443
801 443
802 443
803 443
804 443
805 443
806 443
807 443
808 443
809 443
810 443
811 443
812 443
813 443
814 443
815 443
816 443
817 443
818 443
819 443
820 443
821 443
822 443
823 443
824 443
825 443
826 443
827 443
828 443
829 443
830 443
831 443
832 443
833 443
834 443
835 443
836 443
837 443
838 443
839 443
840 443
841 443
842 443
843 443
844 443
845 443
846 443
847 443
848 443
849 443
850 443
851 443
852 443
853 443
854 443
855 443
856 443
857 443
858 443
859 443
860 443
861 443
862 443
863 443
864 443
865 443
866 443
867 443
868 443
869 443
870 443
871 443
872 443
873 443
874 443
875 443
876 443
877 443
878 443
879 443
880 443
881 443
882 443
883 443
884 443
885 443
886 443
887 443
888 443
889 443
890 443
891 443
892 443
893 443
894 443
895 443
896 443
897 443
898 443
899 443
900 443
901 443
902 443
903 443
904 443
905 443
906 443
907 443
908 443
909 443
910 443
911 443
912 443
913 443
914 443
915 443
916 443
917 443
918 443
919 443
920 443
921 443
922 443
923 443
924 443
925 443
926 443
927 443
928 443
929 443
930 443
931 443
932 443
933 443
934 443
935 443
936 443
937 443
938 443
939 443
940 443
941 443
942 443
943 443
944 443
945 443
946 443
947 443
948 443
949 443
950 443
951 443
952 443
953 443
954 443
955 443
956 443
957 443
958 443
959 443
960 443
961 443
962 443
963 443
964 443
965 443
966 443
967 443
968 443
969 443
970 443
971 443
972 443
973 443
974 443
975 443
976 443
977 443
978 443
979 443
980 443
981 443
982 443
983 443
984 443
985 443
986 443
987 443
988 443
989 443
990 443
991 443
992 443
993 443
994 443
995 443
996 443
997 443
998 443
999 443
